100
1000
250
0 0
-34 15
-34 15
-34 15
-34 15
-34 15
-34 15
-34 15
-34 15
-34 15
-34 15
-34 15
-34 15
-34 15
-34 15
-34 15
-34 15
-34 15
-34 15
-34 15
-34 15
-34 15
-34 15
-34 15
-34 15
-34 15
-6 15
-6 15
-6 15
-6 15
-6 15
-6 15
-6 15
-6 15
-6 15
-6 15
-6 15
-6 15
-6 15
-6 15
-6 15
-6 15
-6 15
-6 15
-6 15
-6 15
-6 15
-6 15
-6 15
-6 15
-6 15
-24 1
-24 1
-24 1
-24 1
-24 1
-24 1
-24 1
-24 1
-24 1
-24 1
-24 1
-24 1
-24 1
-24 1
-24 1
-24 1
-24 1
-24 1
-24 1
-24 1
-24 1
-24 1
-24 1
-24 1
-24 1
38 -13
38 -13
38 -13
38 -13
38 -13
38 -13
38 -13
38 -13
38 -13
38 -13
38 -13
38 -13
38 -13
38 -13
38 -13
38 -13
38 -13
38 -13
38 -13
38 -13
38 -13
38 -13
38 -13
38 -13
38 -13
13 6
13 6
13 6
13 6
13 6
13 6
13 6
13 6
13 6
13 6
13 6
13 6
13 6
13 6
13 6
13 6
13 6
13 6
13 6
13 6
13 6
13 6
13 6
13 6
13 6
17 -11
20 -40
10 -15
-22 -28
-9 -9
-19 40
-6 34
1 -10
20 -1
-11 15
7 -22
33 -5
-1 37
7 -10
-8 -21
25 -23
-35 28
15 -40
26 -9
11 -13
1 36
-8 37
20 37
9 4
38 31
17 -11
20 -40
10 -15
-22 -28
-9 -9
-19 40
-6 34
1 -10
20 -1
-11 15
7 -22
33 -5
-1 37
7 -10
-8 -21
25 -23
-35 28
15 -40
26 -9
11 -13
1 36
-8 37
20 37
9 4
38 31
17 -11
20 -40
10 -15
-22 -28
-9 -9
-19 40
-6 34
1 -10
20 -1
-11 15
7 -22
33 -5
-1 37
7 -10
-8 -21
25 -23
-35 28
15 -40
26 -9
11 -13
1 36
-8 37
20 37
9 4
38 31
17 -11
20 -40
10 -15
-22 -28
-9 -9
-19 40
-6 34
1 -10
20 -1
-11 15
7 -22
33 -5
-1 37
7 -10
-8 -21
25 -23
-35 28
15 -40
26 -9
11 -13
1 36
-8 37
20 37
9 4
38 31
17 -11
20 -40
10 -15
-22 -28
-9 -9
-19 40
-6 34
1 -10
20 -1
-11 15
7 -22
33 -5
-1 37
7 -10
-8 -21
25 -23
-35 28
15 -40
26 -9
11 -13
1 36
-8 37
20 37
9 4
38 31
0 0 
56
56
56
53
54
51
52
55
51
53
53
57
60
55
60
53
59
57
56
51
60
56
51
60
56
55
59
54
53
56
54
51
57
56
53
57
54
52
59
56
51
56
60
54
52
53
57
56
60
56
53
54
51
53
57
57
53
51
55
56
56
57
51
60
56
52
56
51
51
53
59
59
56
55
53
56
52
56
53
56
56
56
52
56
54
55
52
55
55
52
56
56
54
52
53
59
55
59
54
55
57
53
52
53
57
56
57
52
59
57
57
59
57
51
52
60
52
53
56
57
56
52
55
60
56
56
56
56
53
54
51
52
55
51
53
53
57
60
55
60
53
59
57
56
51
60
56
51
60
56
55
59
54
53
56
54
51
57
56
53
57
54
52
59
56
51
56
60
54
52
53
57
56
60
56
53
54
51
53
57
57
53
51
55
56
56
57
51
60
56
52
56
51
51
53
59
59
56
55
53
56
52
56
53
56
56
56
52
56
54
55
52
55
55
52
56
56
54
52
53
59
55
59
54
55
57
53
52
53
57
56
57
52
59
57
57
59
57
51
52
60
52
53
56
57
56
52
55
60
56
